instances/knapsack/knapsack_interdiction/knapsack_40_1_4.kp
42
40
4393

921 92.0 1021 177.98
331 33.0 431 76.23
597 60.0 697 119.03
276 28.0 376 65.44
243 24.0 343 44.72
101 10.0 201 34.6
420 42.0 520 71.68
601 60.0 701 132.01
157 16.0 257 38.69
943 94.0 1043 207.33
867 87.0 967 136.25
910 91.0 1010 101.03
838 84.0 938 165.8
471 47.0 571 69.24
517 52.0 617 84.3
361 36.0 461 82.2
654 65.0 754 141.13
740 74.0 840 117.28
483 48.0 583 110.44
944 94.0 1044 153.81
245 24.0 345 37.5
540 54.0 640 127.36
868 87.0 968 110.19
688 69.0 788 142.88
933 93.0 1033 141.67
128 13.0 228 32.55
909 91.0 1009 139.22
399 40.0 499 59.92
254 25.0 354 60.66
452 45.0 552 57.5
342 34.0 442 61.8
345 34.0 445 58.63
598 60.0 698 121.4
891 89.0 991 136.08
857 86.0 957 167.73
95 10.0 195 27.07
658 66.0 758 106.99
144 14.0 244 38.83
247 25.0 347 43.51
999 100.0 1099 176.77

42
[7165]

[[36, 37, 27, 135, 40, 118, 105, 75, 153, 87, 44, 150, 143, 138, 146, 10, 54, 31, 71, 159, 51, 121, 153, 49, 92, 103, 28, 132, 107, 8, 61, 120, 36, 24, 78, 53, 178, 160, 136, 37]]

[[3, 316, 532, 504, 502, 886, 563, 926, 448, 295, 89, 443, 969, 39, 139, 501, 665, 236, 154, 364, 327, 125, 363, 613, 600, 753, 700, 876, 264, 941, 388, 358, 745, 212, 128, 716, 133, 680, 414, 3]]
